40
    72     6    63    32    78    62    99    33    97    60    22    52    45    76    47    78    63    40    70     4    26    32    63    26    30    88    79    43     6    96    46    56     8    96    72    71    21    83    42    97
     7     8     2     9     3     4     2     2     3     2     3     8     8     7     6     4     5     6     5    10     3     6     7     3     6     7     4     5     9     6     1     7     3     7     4    10     1     8     6     9
  1023     0     0   660   228     0   732  1145  1008  1912  1104  1101   861  1191   372  1551  1685   958     0     0   846   969  1185  1958   798   141   767     0   143   302  1448  1685  1068   123   655   649   414  1046  1680   251
